sifdecoder -A pc64.lnx.gfo -st   HS55

 Problem name: HS55

 Double precision version will be formed

 The objective function uses 1 nonlinear group
 
 There are 6 linear equality constraints
 
 There are 4 variables bounded only from below 
 There are 2 variables bounded from below and above 
 
 
 File successfully decoded
 CUTEST: tools (double precision version) compiled successfully
 CUTEst: ipopt (double precision version) compiled successfully

******************************************************************************
This program contains Ipopt, a library for large-scale nonlinear optimization.
 Ipopt is released as open source code under the Eclipse Public License (EPL).
         For more information visit http://projects.coin-or.org/Ipopt
******************************************************************************

This is Ipopt version trunk, running with linear solver ma57.

Number of nonzeros in equality constraint Jacobian...:       15
Number of nonzeros in inequality constraint Jacobian.:        0
Number of nonzeros in Lagrangian Hessian.............:        3

Total number of variables............................:        6
                     variables with only lower bounds:        4
                variables with lower and upper bounds:        2
                     variables with only upper bounds:        0
Total number of equality constraints.................:        6
Total number of inequality constraints...............:        0
        inequality constraints with only lower bounds:        0
   inequality constraints with lower and upper bounds:        0
        inequality constraints with only upper bounds:        0

iter    objective    inf_pr   inf_du lg(mu)  ||d||  lg(rg) alpha_du alpha_pr  ls
   0  6.0399491e+00 9.60e-01 3.00e+00  -1.0 0.00e+00    -  0.00e+00 0.00e+00   0
Reallocating memory for MA57: lfact (176)
   1  6.1538686e+00 7.77e-01 3.38e+00  -1.0 3.19e-01    -  4.51e-02 1.90e-01h  1
   2  6.7052997e+00 3.55e-08 5.63e-03  -1.0 3.62e-01    -  1.00e+00 1.00e+00f  1
   3  6.7148888e+00 2.77e-09 4.14e-04  -1.7 2.18e-02    -  1.00e+00 1.00e+00f  1
Cannot recompute multipliers for feasibility problem.  Error in eq_mult_calculator

Number of Iterations....: 3

                                   (scaled)                 (unscaled)
Objective...............:   6.7148887717110739e+00    6.7148887717110739e+00
Dual infeasibility......:   2.7892356955563158e-01    2.7892356955563158e-01
Constraint violation....:   2.7709786132312786e-09    2.7709786132312786e-09
Complementarity.........:   0.0000000000000000e+00    0.0000000000000000e+00
Overall NLP error.......:   2.7709786132312786e-09    2.7892356955563158e-01


Number of objective function evaluations             = 4
Number of objective gradient evaluations             = 4
Number of equality constraint evaluations            = 4
Number of inequality constraint evaluations          = 0
Number of equality constraint Jacobian evaluations   = 4
Number of inequality constraint Jacobian evaluations = 0
Number of Lagrangian Hessian evaluations             = 3
Total CPU secs in IPOPT (w/o function evaluations)   =      0.010
Total CPU secs in NLP function evaluations           =      0.001

EXIT: Optimal Solution Found.

************************ CUTEst statistics ************************


 Package used            :  IPOPT
 Problem                 :  HS55      
 # variables             =               6
 # constraints           =               6
 # objective functions   =        0.9000000E+01
 # objective gradients   =        0.5000000E+01
 # objective Hessians    =        0.4000000E+01
 # Hessian-vector prdct  =        0.0000000E+00
 # constraints functions =        0.1000000E+02
 # constraints gradients =        0.6000000E+01
 # constraints Hessians  =        0.4000000E+01
 Exit code               =               0
 Final f                 =        6.7148887717110739D+00
 Bounds feasibility      =        0.0000000000000000D+00
 Set up time             =            0.00 seconds
 Solve time              =            0.04 seconds


******************************************************************

